NAME 20_5_25_7
ROWS
 N COST
 L LK0
 L LK1
 L LK2
 L LK3
 L LK4
 L FK0
 L FK1
 L FK2
 L FK3
 L FK4
COLUMNS
 X0 COST -10.
 X0 LK0 -3.
 X0 LK1 1.
 X0 LK2 2.
 X0 LK3 -2.
 X0 LK4 -3.
 X0 FK0 0.
 X0 FK1 0.
 X0 FK2 0.
 X0 FK3 1.
 X0 FK4 0.
 X1 COST 5.
 X1 LK0 5.
 X1 LK1 -3.
 X1 LK2 4.
 X1 LK3 -4.
 X1 LK4 1.
 X1 FK0 1.
 X1 FK1 0.
 X1 FK2 1.
 X1 FK3 0.
 X1 FK4 1.
 X2 COST -6.
 X2 LK0 1.
 X2 LK1 3.
 X2 LK2 -1.
 X2 LK3 4.
 X2 LK4 3.
 X2 FK0 0.
 X2 FK1 0.
 X2 FK2 1.
 X2 FK3 1.
 X2 FK4 0.
 X3 COST 10.
 X3 LK0 0.
 X3 LK1 1.
 X3 LK2 -4.
 X3 LK3 -1.
 X3 LK4 -3.
 X3 FK0 1.
 X3 FK1 1.
 X3 FK2 1.
 X3 FK3 1.
 X3 FK4 0.
 X4 COST 6.
 X4 LK0 5.
 X4 LK1 -3.
 X4 LK2 0.
 X4 LK3 2.
 X4 LK4 4.
 X4 FK0 1.
 X4 FK1 1.
 X4 FK2 0.
 X4 FK3 0.
 X4 FK4 0.
 X5 COST -9.
 X5 LK0 -1.
 X5 LK1 -4.
 X5 LK2 0.
 X5 LK3 5.
 X5 LK4 0.
 X5 FK0 0.
 X5 FK1 0.
 X5 FK2 1.
 X5 FK3 1.
 X5 FK4 1.
 X6 COST -7.
 X6 LK0 2.
 X6 LK1 5.
 X6 LK2 2.
 X6 LK3 -2.
 X6 LK4 2.
 X6 FK0 1.
 X6 FK1 1.
 X6 FK2 1.
 X6 FK3 0.
 X6 FK4 0.
 X7 COST 9.
 X7 LK0 -4.
 X7 LK1 -1.
 X7 LK2 3.
 X7 LK3 2.
 X7 LK4 4.
 X7 FK0 1.
 X7 FK1 0.
 X7 FK2 0.
 X7 FK3 1.
 X7 FK4 1.
 X8 COST 1.
 X8 LK0 4.
 X8 LK1 -3.
 X8 LK2 5.
 X8 LK3 -3.
 X8 LK4 5.
 X8 FK0 0.
 X8 FK1 1.
 X8 FK2 0.
 X8 FK3 1.
 X8 FK4 1.
 X9 COST 8.
 X9 LK0 -1.
 X9 LK1 -3.
 X9 LK2 0.
 X9 LK3 4.
 X9 LK4 4.
 X9 FK0 1.
 X9 FK1 1.
 X9 FK2 1.
 X9 FK3 0.
 X9 FK4 1.
 X10 COST 8.
 X10 LK0 4.
 X10 LK1 -1.
 X10 LK2 3.
 X10 LK3 3.
 X10 LK4 -5.
 X10 FK0 0.
 X10 FK1 1.
 X10 FK2 1.
 X10 FK3 0.
 X10 FK4 0.
 X11 COST 5.
 X11 LK0 -5.
 X11 LK1 0.
 X11 LK2 5.
 X11 LK3 -4.
 X11 LK4 5.
 X11 FK0 0.
 X11 FK1 0.
 X11 FK2 1.
 X11 FK3 0.
 X11 FK4 0.
 X12 COST -1.
 X12 LK0 2.
 X12 LK1 1.
 X12 LK2 0.
 X12 LK3 0.
 X12 LK4 1.
 X12 FK0 0.
 X12 FK1 1.
 X12 FK2 1.
 X12 FK3 0.
 X12 FK4 0.
 X13 COST -10.
 X13 LK0 5.
 X13 LK1 4.
 X13 LK2 0.
 X13 LK3 0.
 X13 LK4 0.
 X13 FK0 0.
 X13 FK1 1.
 X13 FK2 0.
 X13 FK3 0.
 X13 FK4 0.
 X14 COST -3.
 X14 LK0 3.
 X14 LK1 -2.
 X14 LK2 -5.
 X14 LK3 4.
 X14 LK4 4.
 X14 FK0 1.
 X14 FK1 1.
 X14 FK2 1.
 X14 FK3 1.
 X14 FK4 1.
 X15 COST 1.
 X15 LK0 -3.
 X15 LK1 -3.
 X15 LK2 -1.
 X15 LK3 4.
 X15 LK4 5.
 X15 FK0 1.
 X15 FK1 0.
 X15 FK2 1.
 X15 FK3 0.
 X15 FK4 1.
 X16 COST -10.
 X16 LK0 5.
 X16 LK1 2.
 X16 LK2 2.
 X16 LK3 1.
 X16 LK4 -2.
 X16 FK0 0.
 X16 FK1 0.
 X16 FK2 1.
 X16 FK3 1.
 X16 FK4 1.
 X17 COST 9.
 X17 LK0 -3.
 X17 LK1 4.
 X17 LK2 5.
 X17 LK3 2.
 X17 LK4 4.
 X17 FK0 0.
 X17 FK1 0.
 X17 FK2 0.
 X17 FK3 0.
 X17 FK4 1.
 X18 COST -10.
 X18 LK0 -4.
 X18 LK1 -1.
 X18 LK2 2.
 X18 LK3 -2.
 X18 LK4 -3.
 X18 FK0 0.
 X18 FK1 1.
 X18 FK2 0.
 X18 FK3 1.
 X18 FK4 0.
 X19 COST -8.
 X19 LK0 3.
 X19 LK1 3.
 X19 LK2 3.
 X19 LK3 -3.
 X19 LK4 3.
 X19 FK0 0.
 X19 FK1 0.
 X19 FK2 1.
 X19 FK3 0.
 X19 FK4 0.
 Y0 COST -4.
 Y0 LK0 1.
 Y0 LK1 1.
 Y0 LK2 0.
 Y0 LK3 0.
 Y0 LK4 0.
 Y0 FK0 0.
 Y0 FK1 2.
 Y0 FK2 1.
 Y0 FK3 -4.
 Y0 FK4 2.
 Y1 COST 7.
 Y1 LK0 0.
 Y1 LK1 0.
 Y1 LK2 0.
 Y1 LK3 1.
 Y1 LK4 1.
 Y1 FK0 -2.
 Y1 FK1 -3.
 Y1 FK2 -1.
 Y1 FK3 0.
 Y1 FK4 3.
 Y2 COST 2.
 Y2 LK0 0.
 Y2 LK1 1.
 Y2 LK2 0.
 Y2 LK3 1.
 Y2 LK4 0.
 Y2 FK0 2.
 Y2 FK1 2.
 Y2 FK2 5.
 Y2 FK3 -1.
 Y2 FK4 3.
 Y3 COST 6.
 Y3 LK0 1.
 Y3 LK1 1.
 Y3 LK2 0.
 Y3 LK3 1.
 Y3 LK4 1.
 Y3 FK0 0.
 Y3 FK1 1.
 Y3 FK2 4.
 Y3 FK3 2.
 Y3 FK4 3.
 Y4 COST -8.
 Y4 LK0 1.
 Y4 LK1 0.
 Y4 LK2 1.
 Y4 LK3 0.
 Y4 LK4 1.
 Y4 FK0 4.
 Y4 FK1 2.
 Y4 FK2 -5.
 Y4 FK3 1.
 Y4 FK4 -5.
 Y5 COST 1.
 Y5 LK0 1.
 Y5 LK1 0.
 Y5 LK2 1.
 Y5 LK3 1.
 Y5 LK4 0.
 Y5 FK0 -5.
 Y5 FK1 -5.
 Y5 FK2 2.
 Y5 FK3 2.
 Y5 FK4 0.
 Y6 COST -7.
 Y6 LK0 0.
 Y6 LK1 1.
 Y6 LK2 0.
 Y6 LK3 0.
 Y6 LK4 0.
 Y6 FK0 3.
 Y6 FK1 1.
 Y6 FK2 -3.
 Y6 FK3 -5.
 Y6 FK4 -5.
 Y7 COST -8.
 Y7 LK0 1.
 Y7 LK1 1.
 Y7 LK2 0.
 Y7 LK3 1.
 Y7 LK4 1.
 Y7 FK0 3.
 Y7 FK1 -3.
 Y7 FK2 4.
 Y7 FK3 5.
 Y7 FK4 4.
 Y8 COST 2.
 Y8 LK0 1.
 Y8 LK1 1.
 Y8 LK2 1.
 Y8 LK3 0.
 Y8 LK4 0.
 Y8 FK0 4.
 Y8 FK1 -1.
 Y8 FK2 -4.
 Y8 FK3 -1.
 Y8 FK4 1.
 Y9 COST 8.
 Y9 LK0 0.
 Y9 LK1 0.
 Y9 LK2 0.
 Y9 LK3 0.
 Y9 LK4 0.
 Y9 FK0 1.
 Y9 FK1 -1.
 Y9 FK2 -2.
 Y9 FK3 4.
 Y9 FK4 -5.
 Y10 COST 5.
 Y10 LK0 0.
 Y10 LK1 1.
 Y10 LK2 1.
 Y10 LK3 0.
 Y10 LK4 1.
 Y10 FK0 -5.
 Y10 FK1 1.
 Y10 FK2 -1.
 Y10 FK3 3.
 Y10 FK4 0.
 Y11 COST 4.
 Y11 LK0 1.
 Y11 LK1 1.
 Y11 LK2 1.
 Y11 LK3 1.
 Y11 LK4 0.
 Y11 FK0 4.
 Y11 FK1 -4.
 Y11 FK2 0.
 Y11 FK3 3.
 Y11 FK4 3.
 Y12 COST -3.
 Y12 LK0 1.
 Y12 LK1 1.
 Y12 LK2 0.
 Y12 LK3 0.
 Y12 LK4 1.
 Y12 FK0 5.
 Y12 FK1 3.
 Y12 FK2 0.
 Y12 FK3 2.
 Y12 FK4 -2.
 Y13 COST 6.
 Y13 LK0 1.
 Y13 LK1 1.
 Y13 LK2 1.
 Y13 LK3 0.
 Y13 LK4 1.
 Y13 FK0 -5.
 Y13 FK1 -3.
 Y13 FK2 -5.
 Y13 FK3 0.
 Y13 FK4 -4.
 Y14 COST 3.
 Y14 LK0 1.
 Y14 LK1 1.
 Y14 LK2 0.
 Y14 LK3 0.
 Y14 LK4 1.
 Y14 FK0 -4.
 Y14 FK1 2.
 Y14 FK2 1.
 Y14 FK3 4.
 Y14 FK4 4.
 Y15 COST -8.
 Y15 LK0 1.
 Y15 LK1 0.
 Y15 LK2 1.
 Y15 LK3 1.
 Y15 LK4 1.
 Y15 FK0 -4.
 Y15 FK1 -5.
 Y15 FK2 4.
 Y15 FK3 0.
 Y15 FK4 4.
 Y16 COST 3.
 Y16 LK0 1.
 Y16 LK1 0.
 Y16 LK2 1.
 Y16 LK3 1.
 Y16 LK4 0.
 Y16 FK0 3.
 Y16 FK1 1.
 Y16 FK2 4.
 Y16 FK3 3.
 Y16 FK4 -3.
 Y17 COST -10.
 Y17 LK0 1.
 Y17 LK1 1.
 Y17 LK2 0.
 Y17 LK3 1.
 Y17 LK4 0.
 Y17 FK0 0.
 Y17 FK1 5.
 Y17 FK2 4.
 Y17 FK3 -1.
 Y17 FK4 1.
 Y18 COST -10.
 Y18 LK0 1.
 Y18 LK1 0.
 Y18 LK2 1.
 Y18 LK3 0.
 Y18 LK4 1.
 Y18 FK0 -4.
 Y18 FK1 -5.
 Y18 FK2 3.
 Y18 FK3 -2.
 Y18 FK4 0.
 Y19 COST 4.
 Y19 LK0 1.
 Y19 LK1 0.
 Y19 LK2 0.
 Y19 LK3 0.
 Y19 LK4 0.
 Y19 FK0 -3.
 Y19 FK1 4.
 Y19 FK2 2.
 Y19 FK3 1.
 Y19 FK4 2.
RHS
 RHS LK0 8.
 RHS LK1 3.
 RHS LK2 9.
 RHS LK3 5.
 RHS LK4 10.
 RHS FK0 1.
 RHS FK1 1.
 RHS FK2 7.
 RHS FK3 6.
 RHS FK4 4.
BOUNDS
 UI BOUND	X0	1.
 LI BOUND	X0	0.
 UI BOUND	X1	1.
 LI BOUND	X1	0.
 UI BOUND	X2	1.
 LI BOUND	X2	0.
 UI BOUND	X3	1.
 LI BOUND	X3	0.
 UI BOUND	X4	1.
 LI BOUND	X4	0.
 UI BOUND	X5	1.
 LI BOUND	X5	0.
 UI BOUND	X6	1.
 LI BOUND	X6	0.
 UI BOUND	X7	1.
 LI BOUND	X7	0.
 UI BOUND	X8	1.
 LI BOUND	X8	0.
 UI BOUND	X9	1.
 LI BOUND	X9	0.
 UI BOUND	X10	1.
 LI BOUND	X10	0.
 UI BOUND	X11	1.
 LI BOUND	X11	0.
 UI BOUND	X12	1.
 LI BOUND	X12	0.
 UI BOUND	X13	1.
 LI BOUND	X13	0.
 UI BOUND	X14	1.
 LI BOUND	X14	0.
 UI BOUND	X15	1.
 LI BOUND	X15	0.
 UI BOUND	X16	1.
 LI BOUND	X16	0.
 UI BOUND	X17	1.
 LI BOUND	X17	0.
 UI BOUND	X18	1.
 LI BOUND	X18	0.
 UI BOUND	X19	1.
 LI BOUND	X19	0.
 UI BOUND	Y0	1.
 LI BOUND	Y0	0.
 UI BOUND	Y1	1.
 LI BOUND	Y1	0.
 UI BOUND	Y2	1.
 LI BOUND	Y2	0.
 UI BOUND	Y3	1.
 LI BOUND	Y3	0.
 UI BOUND	Y4	1.
 LI BOUND	Y4	0.
 UI BOUND	Y5	1.
 LI BOUND	Y5	0.
 UI BOUND	Y6	1.
 LI BOUND	Y6	0.
 UI BOUND	Y7	1.
 LI BOUND	Y7	0.
 UI BOUND	Y8	1.
 LI BOUND	Y8	0.
 UI BOUND	Y9	1.
 LI BOUND	Y9	0.
 UI BOUND	Y10	1.
 LI BOUND	Y10	0.
 UI BOUND	Y11	1.
 LI BOUND	Y11	0.
 UI BOUND	Y12	1.
 LI BOUND	Y12	0.
 UI BOUND	Y13	1.
 LI BOUND	Y13	0.
 UI BOUND	Y14	1.
 LI BOUND	Y14	0.
 UI BOUND	Y15	1.
 LI BOUND	Y15	0.
 UI BOUND	Y16	1.
 LI BOUND	Y16	0.
 UI BOUND	Y17	1.
 LI BOUND	Y17	0.
 UI BOUND	Y18	1.
 LI BOUND	Y18	0.
 UI BOUND	Y19	1.
 LI BOUND	Y19	0.
ENDATA
